Linux optc-09-05 4.15.0-58-generic #64-Ubuntu SMP Tue Aug 6 11:12:41 UTC 2019 x86_64 x86_64 x86_64 GNU/Linux

top - 03:03:43 up 1 day, 17:04,  0 users,  load average: 0,91, 0,82, 0,70
Tasks: 290 gesamt,   1 laufend, 149 schlafend,   0 gestoppt,   0 Zombie
%CPU(s):  5,9 be,  0,2 sy,  0,0 ni, 93,9 un,  0,0 wa,  0,0 hi,  0,0 si,  0,0 st
KiB Spch : 97514992 gesamt, 95522064 frei,   642404 belegt,  1350532 Puff/Cache
KiB Swap:  8388604 gesamt,  8388604 frei,        0 belegt. 96130832 verfü Spch 

  PID USER      PR  NI    VIRT    RES    SHR S  %CPU %MEM     ZEIT+ BEFEHL
    1 root      20   0  233864   9544   6824 S   0,0  0,0   0:13.50 systemd
    2 root      20   0       0      0      0 S   0,0  0,0   0:00.15 kthreadd
    3 root      20   0       0      0      0 I   0,0  0,0   0:02.37 kworker/0:0
    4 root       0 -20       0      0      0 I   0,0  0,0   0:00.00 kworker/0:+
    6 root      20   0       0      0      0 I   0,0  0,0   0:00.00 kworker/u3+
    7 root       0 -20       0      0      0 I   0,0  0,0   0:00.00 mm_percpu_+
    8 root      20   0       0      0      0 S   0,0  0,0   0:00.01 ksoftirqd/0
    9 root      20   0       0      0      0 I   0,0  0,0   0:14.50 rcu_sched

hard time limit: 04:10:00
hard mem limit: 55100

SLURM jobID: 2182873

@01 /nfs/optimi/kombadon/IP/coral/neos-957143.mps.gz ===========
-----------------------------
Fr 23. Aug 03:03:43 CEST 2019
-----------------------------
@03 1566522223
@05 7200
SCIP version 6.0.0 [precision: 8 byte] [memory: block] [mode: optimized] [LP solver: CPLEX 12.8.0.0] [GitHash: 41ab6e0014]
Copyright (C) 2002-2018 Konrad-Zuse-Zentrum fuer Informationstechnik Berlin (ZIB)

External codes: 
  Readline 7.0         GNU library for command line editing (gnu.org/s/readline)
  CPLEX 12.8.0.0       Linear Programming Solver developed by IBM (www.cplex.com)
  CppAD 20180000.0     Algorithmic Differentiation of C++ algorithms developed by B. Bell (www.coin-or.org/CppAD)
  ZLIB 1.2.11          General purpose compression library by J. Gailly and M. Adler (zlib.net)
  GMP 6.1.2            GNU Multiple Precision Arithmetic Library developed by T. Granlund (gmplib.org)
  bliss 0.73p          Computing Graph Automorphism Groups by T. Junttila and P. Kaski (http://www.tcs.hut.fi/Software/bliss/)

user parameter file <scip.set> not found - using default parameters

SCIP> 
SCIP> set load /home/optimi/bzfhende/opti/scip-opti/check/../settings/enable_treeeprofile.set
loaded parameter file </home/optimi/bzfhende/opti/scip-opti/check/../settings/enable_treeprofile.set>
SCIP> set misc referencevalue -237.768889
misc/referencevalue = -237.768889
SCIP> set limits time 7200
limits/time = 7200
SCIP> set limits nodes 2100000000
limits/nodes = 2100000000
SCIP> set limits memory 50000
limits/memory = 50000
SCIP> set lp advanced threads 1
lp/threads = 1
SCIP> set timing clocktype 1
timing/clocktype = 1
SCIP> set display freq 10000
display/freq = 10000
SCIP> set memory savefac 1.0
memory/savefac = 1
SCIP> set save /home/optimi/bzfhende/opti/scip-opti/check/treesize.estimation.jouurnal.3/bzfhende.MMMc.409_neos-957143.scip.M640.enable_treeprofile.set
saved parameter file </home/optimi/bzfhende/opti/scip-opti/check/treesize.estimation.journal.3/bzfhende.MMMc.409_neos-957143.scip.M640.enable_treeprofile.set>
SCIP> read /nfs/optimi/kombadon/IP/coral/neos-957143.mps.gz

read problem </nfs/optimi/kombadon/IP/coral/neos-957143.mps.gz>
============

original problem has 57756 variables (57756 bin, 0 int, 0 impl, 0 cont) and 2767 constraints
SCIP> display parameters

number of parameters = 2448
non-default parameter settings:
display/freq = 10000
limits/time = 7200
limits/nodes = 2100000000
limits/memory = 50000
lp/threads = 1
memory/savefac = 1
misc/referencevalue = -237.768889
presolving/maxrestarts = 0
estimates/profile/enabled = TRUE
estimates/profile/maxdepthfactor = 10
estimates/profile/freq = 0

SCIP> optimize

Activating tree profile data collection
feasible solution found by trivial heuristic after 0.2 seconds, objective value 0.000000e+00
presolving:
(round 1, fast)       47 del vars, 1 del conss, 0 add conss, 0 chg bounds, 172 chg sides, 946 chg coeffs, 0 upgd conss, 0 impls, 9991 clqs
(round 2, exhaustive) 47 del vars, 517 del conss, 0 add conss, 0 chg bounds, 172 chg sides, 946 chg coeffs, 0 upgd conss, 0 impls, 9991 clqs
(round 3, exhaustive) 47 del vars, 517 del conss, 0 add conss, 0 chg bounds, 172 chg sides, 946 chg coeffs, 2246 upgd conss, 0 impls, 9991 clqs
(round 4, fast)       47 del vars, 755 del conss, 119 add conss, 0 chg bounds, 172 chg sides, 7290 chg coeffs, 2246 upgd conss, 0 impls, 9991 clqs
(round 5, fast)       47 del vars, 755 del conss, 119 add conss, 0 chg bounds, 276 chg sides, 28818 chg coeffs, 2246 upgd conss, 0 impls, 9991 clqs
(round 6, medium)     47 del vars, 1029 del conss, 256 add conss, 0 chg bounds, 413 chg sides, 56834 chg coeffs, 2246 upgd conss, 0 impls, 10111 clqs
(round 7, exhaustive) 47 del vars, 1304 del conss, 256 add conss, 0 chg bounds, 413 chg sides, 56834 chg coeffs, 2246 upgd conss, 0 impls, 10111 clqs
(round 8, exhaustive) 47 del vars, 1304 del conss, 256 add conss, 0 chg bounds, 413 chg sides, 56834 chg coeffs, 2250 upgd conss, 0 impls, 10111 clqs
(round 9, medium)     51 del vars, 1308 del conss, 256 add conss, 0 chg bounds, 413 chg sides, 56834 chg coeffs, 2250 upgd conss, 0 impls, 10111 clqs
(round 10, fast)       51 del vars, 1312 del conss, 260 add conss, 0 chg bounds, 413 chg sides, 56834 chg coeffs, 2250 upgd conss, 0 impls, 10115 clqs
(round 11, exhaustive) 51 del vars, 1312 del conss, 260 add conss, 0 chg bounds, 413 chg sides, 56834 chg coeffs, 2254 upgd conss, 0 impls, 10115 clqs
presolving (12 rounds: 12 fast, 8 medium, 6 exhaustive):
 83 deleted vars, 1312 deleted constraints, 260 added constraints, 0 tightened bounds, 0 added holes, 413 changed sides, 56834 changed coefficients
 0 implications, 10107 cliques
presolved problem has 57673 variables (57673 bin, 0 int, 0 impl, 0 cont) and 1715 constraints
    497 constraints of type <knapsack>
   1218 constraints of type <setppc>
transformed objective value is always integral (scale: 0.00222222222222222)
Presolving Time: 2.46
transformed 1/1 original solutions to the transformed problem space

 time | node  | left  |LP iter|LP it/n| mem |mdpt |frac |vars |cons |cols |rows |cuts |confs|strbr|  dualbound   | primalbound  |  gap   
k 4.5s|     1 |     0 |     0 |     - | 405M|   0 |   - |  57k|1716 |  57k|1715 |   0 |   0 |   0 |-5.754400e+04 |-6.269556e+01 |  Large 
b16.5s|     1 |     0 |    36 |     - | 424M|   0 |   - |  57k|1748 |  57k|1715 |   0 |  32 |   0 |-5.754400e+04 |-1.946956e+02 |  Large 
 17.1s|     1 |     0 |  3571 |     - | 424M|   0 | 325 |  57k|1748 |  57k|1715 |   0 |  32 |   0 |-2.377700e+02 |-1.946956e+02 |  22.12%
 17.6s|     1 |     0 |  3673 |     - | 433M|   0 | 341 |  57k|1749 |  57k|1716 |   1 |  33 |   0 |-2.377700e+02 |-1.946956e+02 |  22.12%
 18.1s|     1 |     0 |  3709 |     - | 434M|   0 | 357 |  57k|1750 |  57k|1717 |   2 |  34 |   0 |-2.377700e+02 |-1.946956e+02 |  22.12%
 18.9s|     1 |     0 |  4007 |     - | 435M|   0 | 280 |  57k|1750 |  57k|1727 |  12 |  34 |   0 |-2.377700e+02 |-1.946956e+02 |  22.12%
 19.4s|     1 |     0 |  4124 |     - | 438M|   0 | 295 |  57k|1751 |  57k|1732 |  17 |  35 |   0 |-2.377700e+02 |-1.946956e+02 |  22.12%
 19.9s|     1 |     0 |  4241 |     - | 440M|   0 | 269 |  57k|1752 |  57k|1736 |  21 |  36 |   0 |-2.377700e+02 |-1.946956e+02 |  22.12%
 20.5s|     1 |     0 |  4312 |     - | 441M|   0 | 255 |  57k|1752 |  57k|1738 |  23 |  36 |   0 |-2.377700e+02 |-1.946956e+02 |  22.12%
 21.0s|     1 |     0 |  4467 |     - | 442M|   0 | 235 |  57k|1752 |  57k|1744 |  29 |  36 |   0 |-2.377700e+02 |-1.946956e+02 |  22.12%
 21.6s|     1 |     0 |  4625 |     - | 448M|   0 | 252 |  57k|1752 |  57k|1748 |  33 |  36 |   0 |-2.377700e+02 |-1.946956e+02 |  22.12%
 22.1s|     1 |     0 |  4665 |     - | 448M|   0 | 255 |  57k|1752 |  57k|1752 |  37 |  36 |   0 |-2.377700e+02 |-1.946956e+02 |  22.12%
 22.6s|     1 |     0 |  4784 |     - | 448M|   0 | 236 |  57k|1752 |  57k|1754 |  39 |  36 |   0 |-2.377700e+02 |-1.946956e+02 |  22.12%
 23.1s|     1 |     0 |  4884 |     - | 448M|   0 | 248 |  57k|1752 |  57k|1755 |  40 |  36 |   0 |-2.377700e+02 |-1.946956e+02 |  22.12%
 23.6s|     1 |     0 |  4998 |     - | 448M|   0 | 313 |  57k|1753 |  57k|1756 |  41 |  37 |   0 |-2.377700e+02 |-1.946956e+02 |  22.12%
 time | node  | left  |LP iter|LP it/n| mem |mdpt |frac |vars |cons |cols |rows |cuts |confs|strbr|  dualbound   | primalbound  |  gap   
 24.0s|     1 |     0 |  5067 |     - | 449M|   0 | 320 |  57k|1754 |  57k|1758 |  43 |  38 |   0 |-2.377700e+02 |-1.946956e+02 |  22.12%
u39.3s|     1 |     0 | 24804 |     - | 456M|   0 |   - |  57k|1755 |  57k|1758 |   0 |  39 |   0 |-2.377700e+02 |-2.377689e+02 |   0.00%
SCIP nodes: 1 Estimation: -1
 39.4s|     1 |     0 | 24804 |     - | 451M|   0 |   - |  57k|1755 |  57k|1758 |  43 |  39 |   0 |-2.377689e+02 |-2.377689e+02 |   0.00%
Report 1
Time Elapsed: 39.39
  Tree Data        : 1 nodes (1 visited, 0 inner, 1 leaves, 0 open), progress: 1.0000
Tree Estimation    :       estim       value       trend  resolution      smooth
  wbe              :          -1           -           -           -           -
  tree profile     :          -1           -           -           -           -
  gap              :           1     1.00000     1.00000           1           1
  progress         :           1     1.00000     1.00000           1           1
  leaf-frequency   :           1     0.50000     1.00000           1           1
  ssg              :           1     0.00000    -1.00000           1           1
  open-nodes       :           1     0.00000     0.00000           1           1
End of Report 1


SCIP Status        : problem is solved [optimal solution found]
Solving Time (sec) : 39.39
Solving Nodes      : 1
Primal Bound       : -2.37768888888889e+02 (4 solutions)
Dual Bound         : -2.37768888888889e+02
Gap                : 0.00 %

SCIP> display statistics

SCIP Status        : problem is solved [optimal solution found]
Total Time         :      39.60
  solving          :      39.39
  presolving       :       2.46 (included in solving)
  reading          :       0.21
  copying          :       0.00 (0 times copied the problem)
Original Problem   :
  Problem name     : file
  Variables        : 57756 (57756 binary, 0 integer, 0 implicit integer, 0 continuous)
  Constraints      : 2767 initial, 2767 maximal
  Objective        : minimize, 57621 non-zeros (abs.min = 0.00222222, abs.max = 1)
Presolved Problem  :
  Problem name     : t_file
  Variables        : 57673 (57673 binary, 0 integer, 0 implicit integer, 0 continuous)
  Constraints      : 1715 initial, 1755 maximal
  Objective        : minimize, 57589 non-zeros (abs.min = 1, abs.max = 450)
Presolvers         :   ExecTime  SetupTime  Calls  FixedVars   AggrVars   ChgTypes  ChgBounds   AddHoles    DelCons    AddCons   ChgSides   ChgCoefs
  boundshift       :       0.00       0.00      0          0          0          0          0          0          0          0          0          0
  convertinttobin  :       0.00       0.00      0          0          0          0          0          0          0          0          0          0
  domcol           :       0.40       0.00      1          0          0          0          0          0          0          0          0          0
  dualagg          :       0.00       0.00      0          0          0          0          0          0          0          0          0          0
  dualcomp         :       0.00       0.00      0          0          0          0          0          0          0          0          0          0
  dualinfer        :       0.00       0.00      0          0          0          0          0          0          0          0          0          0
  gateextraction   :       0.00       0.00      0          0          0          0          0          0          0          0          0          0
  implics          :       0.00       0.00      8          0          0          0          0          0          0          0          0          0
  inttobinary      :       0.00       0.00      0          0          0          0          0          0          0          0          0          0
  qpkktref         :       0.00       0.00      0          0          0          0          0          0          0          0          0          0
  redvub           :       0.00       0.00      0          0          0          0          0          0          0          0          0          0
  sparsify         :       0.03       0.00      1          0          0          0          0          0          0          0          0          0
  stuffing         :       0.00       0.00      0          0          0          0          0          0          0          0          0          0
  symbreak         :       0.00       0.00      0          0          0          0          0          0          0          0          0          0
  symmetry         :       0.00       0.00      0          0          0          0          0          0          0          0          0          0
  trivial          :       0.01       0.00     12          0          0          0          0          0          0          0          0          0
  tworowbnd        :       0.00       0.00      0          0          0          0          0          0          0          0          0          0
  dualfix          :       0.03       0.00     12         46          0          0          0          0          0          0          0          0
  genvbounds       :       0.00       0.00      0          0          0          0          0          0          0          0          0          0
  orbitalfixing    :       0.00       0.00      0          0          0          0          0          0          0          0          0          0
  probing          :       0.05       0.00      1         32          0          0          0          0          0          0          0          0
  pseudoobj        :       0.00       0.00      1          0          0          0          0          0          0          0          0          0
  vbounds          :       0.03       0.00      1          0          0          0          0          0          0          0          0          0
  knapsack         :       0.34       0.01     19          0          0          0          0          0        256        256        241      55888
  setppc           :       0.43       0.00     19          0          4          0          0          0        539          4          0          0
  linear           :       0.95       0.06     14          0          1          0          0          0        517          0        172        946
  logicor          :       0.00       0.00      0          0          0          0          0          0          0          0          0          0
  benders          :       0.00       0.00      0          0          0          0          0          0          0          0          0          0
  components       :       0.05       0.00      1          0          0          0          0          0          0          0          0          0
  root node        :          -          -      -          0          -          -          0          -          -          -          -          -
Constraints        :     Number  MaxNumber  #Separate #Propagate    #EnfoLP    #EnfoRelax  #EnfoPS    #Check   #ResProp    Cutoffs    DomReds       Cuts    Applied      Conss   Children
  benderslp        :          0          0          0          0          0          0          0         18          0          0          0          0          0          0          0
  integral         :          0          0          0          0          0          0          0         18          0          0          0          0          0          0          0
  knapsack         :        497        497         13      67033          0          0          0         13       1400         10          0          0          0          0          0
  setppc           :       1218+      1227         13      67149          0          0          0          5       1058         11          0          0          0          0          0
  logicor          :          0+        31         13          9          0          0          0          0          0          0          0          0          0          0          0
  benders          :          0          0          0          0          0          0          0          6          0          0          0          0          0          0          0
  countsols        :          0          0          0          0          0          0          0          6          0          0          0          0          0          0          0
  components       :          0          0          0          0          0          0          0          0          0          0          0          0          0          0          0
Constraint Timings :  TotalTime  SetupTime   Separate  Propagate     EnfoLP     EnfoPS     EnfoRelax   Check    ResProp    SB-Prop
  benderslp        :       0.00       0.00       0.00       0.00       0.00       0.00       0.00       0.00       0.00       0.00
  integral         :       0.01       0.00       0.00       0.00       0.00       0.00       0.00       0.01       0.00       0.00
  knapsack         :       4.76       0.01       2.30       2.44       0.00       0.00       0.00       0.01       0.00       0.00
  setppc           :       0.63       0.00       0.02       0.60       0.00       0.00       0.00       0.01       0.00       0.00
  logicor          :       0.00       0.00       0.00       0.00       0.00       0.00       0.00       0.00       0.00       0.00
  benders          :       0.00       0.00       0.00       0.00       0.00       0.00       0.00       0.00       0.00       0.00
  countsols        :       0.00       0.00       0.00       0.00       0.00       0.00       0.00       0.00       0.00       0.00
  components       :       0.03       0.00       0.00       0.03       0.00       0.00       0.00       0.00       0.00       0.00
Propagators        : #Propagate   #ResProp    Cutoffs    DomReds
  dualfix          :          2          0          0          0
  genvbounds       :          0          0          0          0
  nlobbt           :          0          0          0          0
  obbt             :          0          0          0          0
  orbitalfixing    :          0          0          0          0
  probing          :          0          0          0          0
  pseudoobj        :         17          0          0          0
  redcost          :         15          0          0          0
  rootredcost      :          0          0          0          0
  vbounds          :      67149          0          0          0
Propagator Timings :  TotalTime  SetupTime   Presolve  Propagate    ResProp    SB-Prop
  dualfix          :       0.03       0.00       0.03       0.00       0.00       0.00
  genvbounds       :       0.04       0.00       0.00       0.04       0.00       0.00
  nlobbt           :       0.00       0.00       0.00       0.00       0.00       0.00
  obbt             :       0.00       0.00       0.00       0.00       0.00       0.00
  orbitalfixing    :       0.02       0.00       0.00       0.02       0.00       0.00
  probing          :       0.05       0.00       0.05       0.00       0.00       0.00
  pseudoobj        :       0.01       0.00       0.00       0.01       0.00       0.00
  redcost          :       0.06       0.00       0.00       0.06       0.00       0.00
  rootredcost      :       0.01       0.00       0.00       0.01       0.00       0.00
  vbounds          :       0.08       0.00       0.03       0.05       0.00       0.00
Conflict Analysis  :       Time      Calls    Success    DomReds  Conflicts   Literals    Reconvs ReconvLits   Dualrays   Nonzeros   LP Iters   (pool size: [10000,10000])
  propagation      :       0.01         12         12          -        318      286.4          0        0.0          -          -          -
  infeasible LP    :       0.00          0          0          -          0        0.0          0        0.0          0        0.0          0
  bound exceed. LP :       9.61          3          0          -          0        0.0          0        0.0          0        0.0         50
  strong branching :       0.00          0          0          -          0        0.0          0        0.0          -          -          0
  pseudo solution  :       0.00          0          0          -          0        0.0          0        0.0          -          -          -
  applied globally :       0.00          -          -          0         39       79.9          -          -          0          -          -
  applied locally  :          -          -          -          0          0        0.0          -          -          0          -          -
Separators         :   ExecTime  SetupTime      Calls    Cutoffs    DomReds       Cuts    Applied      Conss
  cut pool         :       0.00                    25          -          -         60          -          -    (maximal pool size: 125)
  aggregation      :       0.17       0.00         13          0          0          0          0          0
  cgmip            :       0.00       0.00          0          0          0          0          0          0
  clique           :       0.21       0.00         13          0          0          0         26          0
  closecuts        :       0.00       0.00          0          0          0          0          0          0
  cmir             :       0.00       0.00          0          0          0          0          0          0
  convexproj       :       0.00       0.00          0          0          0          0          0          0
  disjunctive      :       0.00       0.00          0          0          0          0          0          0
  eccuts           :       0.00       0.00          0          0          0          0          0          0
  flowcover        :       0.00       0.00          0          0          0          0          0          0
  gauge            :       0.00       0.00          0          0          0          0          0          0
  gomory           :       0.37       0.00         10          0          0          0          1          0
  impliedbounds    :       0.03       0.00         13          0          0          0          0          0
  intobj           :       0.00       0.00          0          0          0          0          0          0
  mcf              :       0.01       0.00          1          0          0          0          0          0
  oddcycle         :       0.00       0.00          0          0          0          0          0          0
  rapidlearning    :       0.00       0.00          0          0          0          0          0          0
  strongcg         :       0.43       0.00         13          0          0          0          1          0
  zerohalf         :       0.50       0.00         13          0          0          0         15          0
Pricers            :   ExecTime  SetupTime      Calls       Vars
  problem variables:       0.00          -          0          0
Branching Rules    :   ExecTime  SetupTime   BranchLP  BranchExt   BranchPS    Cutoffs    DomReds       Cuts      Conss   Children
  allfullstrong    :       0.00       0.00          0          0          0          0          0          0          0          0
  cloud            :       0.00       0.00          0          0          0          0          0          0          0          0
  distribution     :       0.00       0.00          0          0          0          0          0          0          0          0
  fullstrong       :       0.00       0.00          0          0          0          0          0          0          0          0
  inference        :       0.00       0.00          0          0          0          0          0          0          0          0
  leastinf         :       0.00       0.00          0          0          0          0          0          0          0          0
  lookahead        :       0.00       0.00          0          0          0          0          0          0          0          0
  mostinf          :       0.00       0.00          0          0          0          0          0          0          0          0
  multaggr         :       0.00       0.00          0          0          0          0          0          0          0          0
  nodereopt        :       0.00       0.00          0          0          0          0          0          0          0          0
  pscost           :       0.00       0.00          0          0          0          0          0          0          0          0
  random           :       0.00       0.00          0          0          0          0          0          0          0          0
  relpscost        :       0.00       0.00          0          0          0          0          0          0          0          0
Primal Heuristics  :   ExecTime  SetupTime      Calls      Found       Best
  LP solutions     :       0.00          -          -          0          0
  relax solutions  :       0.00          -          -          0          0
  pseudo solutions :       0.00          -          -          0          0
  strong branching :       0.00          -          -          0          0
  actconsdiving    :       0.00       0.00          0          0          0
  alns             :       0.00       0.00          0          0          0
  bound            :       0.00       0.00          0          0          0
  clique           :       0.32       0.00          1          0          0
  coefdiving       :       0.00       0.00          0          0          0
  completesol      :       0.00       0.00          0          0          0
  conflictdiving   :       0.00       0.00          0          0          0
  crossover        :       0.00       0.00          0          0          0
  dins             :       0.00       0.00          0          0          0
  distributiondivin:       0.00       0.00          0          0          0
  dualval          :       0.00       0.00          0          0          0
  farkasdiving     :      15.19       0.00          1          1          1
  feaspump         :       0.00       0.00          0          0          0
  fixandinfer      :       0.00       0.00          0          0          0
  fracdiving       :       0.00       0.00          0          0          0
  gins             :       0.00       0.00          0          0          0
  guideddiving     :       0.00       0.00          0          0          0
  indicator        :       0.00       0.00          0          0          0
  intdiving        :       0.00       0.00          0          0          0
  intshifting      :       0.00       0.00          0          0          0
  linesearchdiving :       0.00       0.00          0          0          0
  localbranching   :       0.00       0.00          0          0          0
  locks            :       1.59       0.00          1          1          1
  lpface           :       0.00       0.00          0          0          0
  mpec             :       0.00       0.00          0          0          0
  multistart       :       0.00       0.00          0          0          0
  mutation         :       0.00       0.00          0          0          0
  nlpdiving        :       0.00       0.00          0          0          0
  objpscostdiving  :       0.00       0.00          0          0          0
  octane           :       0.00       0.00          0          0          0
  ofins            :       0.00       0.00          0          0          0
  oneopt           :       0.04       0.00          1          1          1
  proximity        :       0.00       0.00          0          0          0
  pscostdiving     :       0.00       0.00          0          0          0
  randrounding     :       1.81       0.00         14          0          0
  rens             :       0.00       0.00          0          0          0
  reoptsols        :       0.00       0.00          0          0          0
  repair           :       0.00       0.00          0          0          0
  rins             :       0.00       0.00          0          0          0
  rootsoldiving    :       0.00       0.00          0          0          0
  rounding         :       0.02       0.00         14          0          0
  shiftandpropagate:       0.00       0.00          0          0          0
  shifting         :       0.06       0.00         14          0          0
  simplerounding   :       0.01       0.00         14          0          0
  subnlp           :       0.00       0.00          0          0          0
  trivial          :       0.08       0.00          2          1          1
  trivialnegation  :       0.00       0.00          0          0          0
  trysol           :       0.00       0.00          0          0          0
  twoopt           :       0.00       0.00          0          0          0
  undercover       :       0.00       0.00          0          0          0
  vbounds          :      11.90       0.00          1          0          0
  veclendiving     :       0.00       0.00          0          0          0
  zeroobj          :       0.00       0.00          0          0          0
  zirounding       :       0.00       0.00          1          0          0
  other solutions  :          -          -          -          0          -
Diving Statistics  :      Calls      Nodes   LP Iters Backtracks  Conflicts   MinDepth   MaxDepth   AvgDepth  RoundSols  NLeafSols  MinSolDpt  MaxSolDpt  AvgSolDpt
  actconsdiving    :          0          -          -          -          -          -          -          -          -          -          -          -          -
  coefdiving       :          0          -          -          -          -          -          -          -          -          -          -          -          -
  conflictdiving   :          0          -          -          -          -          -          -          -          -          -          -          -          -
  distributiondivin:          0          -          -          -          -          -          -          -          -          -          -          -          -
  farkasdiving     :          1        398      19737          0          0        399        399      399.0          0          1        399        399      399.0
  fracdiving       :          0          -          -          -          -          -          -          -          -          -          -          -          -
  guideddiving     :          0          -          -          -          -          -          -          -          -          -          -          -          -
  linesearchdiving :          0          -          -          -          -          -          -          -          -          -          -          -          -
  pscostdiving     :          0          -          -          -          -          -          -          -          -          -          -          -          -
  veclendiving     :          0          -          -          -          -          -          -          -          -          -          -          -          -
Neighborhoods      :      Calls  SetupTime  SolveTime SolveNodes       Sols       Best       Exp3  EpsGreedy        UCB TgtFixRate  Opt  Inf Node Stal  Sol  Usr Othr Actv
  rens             :          0       0.00       0.00          0          0          0    0.00000   -1.00000    1.00000      0.900    0    0    0    0    0    0    0    1
  rins             :          0       0.00       0.00          0          0          0    0.00000   -1.00000    1.00000      0.900    0    0    0    0    0    0    0    1
  mutation         :          0       0.00       0.00          0          0          0    0.00000   -1.00000    1.00000      0.900    0    0    0    0    0    0    0    1
  localbranching   :          0       0.00       0.00          0          0          0    0.00000   -1.00000    1.00000      0.900    0    0    0    0    0    0    0    1
  crossover        :          0       0.00       0.00          0          0          0    0.00000   -1.00000    1.00000      0.900    0    0    0    0    0    0    0    1
  proximity        :          0       0.00       0.00          0          0          0    0.00000   -1.00000    1.00000      0.900    0    0    0    0    0    0    0    1
  zeroobjective    :          0       0.00       0.00          0          0          0    0.00000   -1.00000    1.00000      0.900    0    0    0    0    0    0    0    1
  dins             :          0       0.00       0.00          0          0          0    0.00000   -1.00000    1.00000      0.900    0    0    0    0    0    0    0    1
LP                 :       Time      Calls Iterations  Iter/call   Iter/sec  Time-0-It Calls-0-It    ItLimit
  primal LP        :       0.00          0          0       0.00          -       0.00          0
  dual LP          :       1.52         14       5031     359.36    3309.87       0.00          0
  lex dual LP      :       0.00          0          0       0.00          -
  barrier LP       :       0.00          0          0       0.00          -       0.00          0
  resolve instable :       0.00          0          0       0.00          -
  diving/probing LP:      10.81        400      19773      49.43    1829.14
  strong branching :       0.00          0          0       0.00          -          -          -          0
    (at root node) :          -          0          0       0.00          -
  conflict analysis:       0.01          5         50      10.00    5000.00
B&B Tree           :
  number of runs   :          1
  nodes            :          1 (0 internal, 1 leaves)
  feasible leaves  :          0
  infeas. leaves   :          0
  objective leaves :          1
  nodes (total)    :          1 (0 internal, 1 leaves)
  nodes left       :          0
  max depth        :          0
  max depth (total):          0
  backtracks       :          0 (0.0%)
  early backtracks :          0 (0.0%)
  nodes exc. ref.  :          0 (0.0%)
  delayed cutoffs  :          0
  repropagations   :          0 (0 domain reductions, 0 cutoffs)
  avg switch length:       2.00
  switching time   :       0.00
Root Node          :
  First LP value   : -2.37770000000000e+02
  First LP Iters   :       3535 (6546.30 Iter/sec)
  First LP Time    :       0.54
  Final Dual Bound : -2.37768888888889e+02
  Final Root Iters :       5031
  Root LP Estimate :                     -
Solution           :
  Solutions found  :          4 (4 improvements)
  First Solution   : +0.00000000000000e+00   (in run 1, after 0 nodes, 0.14 seconds, depth 0, found by <trivial>)
  Gap First Sol.   :   infinite
  Gap Last Sol.    :       0.00 %
  Primal Bound     : -2.37768888888889e+02   (in run 1, after 1 nodes, 39.33 seconds, depth 399, found by <farkasdiving>)
  Dual Bound       : -2.37768888888889e+02
  Gap              :       0.00 %
  Avg. Gap         :      53.54 % (2108.95 primal-dual integral)
  Tree Data        : 1 nodes (1 visited, 0 inner, 1 leaves, 0 open), progress: 1.0000
Tree Estimation    :       estim       value       trend  resolution      smooth
  wbe              :           1           -           -           -           -
  tree profile     :          -1           -           -           -           -
  gap              :           1     1.00000     1.00000           1           1
  progress         :           1     1.00000     1.00000           1           1
  leaf-frequency   :           1     0.50000     1.00000           1           1
  ssg              :           1     0.00000    -1.00000           1           1
  open-nodes       :           1     0.00000     0.00000           1           1


SCIP> checksol

check best solution
solution is feasible in original problem
Violation          :    absolute    relative
  bounds           : 0.00000e+00 0.00000e+00
  integrality      : 0.00000e+00           -
  LP rows          : 0.00000e+00 0.00000e+00
  constraints      : 0.00000e+00 0.00000e+00

SCIP> write sol /local/tmp/bzfhende-tmpdir/bzfhende.MMMc.409_neos-957143.scip.M6440.enable_treeprofile.sol

written solution information to file </local/tmp/bzfhende-tmpdir/bzfhende.MMMc.409_neos-957143.scip.M640.enable_treeprofile.sol>

SCIP> quit

Disabling tree profile data collection
Read MPS: 1
MIP has 57756 vars and 2767 constraints
Read SOL: 1
Objective value computed by solver: -237.768888888889

Integrality tolerance: 1/10000
Linear tolerance: 1/10000
Objective tolerance: 1/10000

Check SOL: Integrality 1 Constraints 1 Objective 1
Maximum violations: Integrality 0 Constraints 0 Objective 8.899999999999999e-11
@04 1566522265
-----------------------------
Fr 23. Aug 03:04:25 CEST 2019
-----------------------------

=ready=
